(set-logic HORN)
(declare-fun state (Int Int Int (Array Int Int) Int (Array Int Int) Int Int Int Int Int (Array Int Int) (Array Int Int) (Array Int Int) (Array Int Int) Int Int Int Int (Array Int Int) (Array Int Int) (Array Int Int) Bool Bool Bool Int Int Int Int Int) Bool)
(assert (forall ((|A_10| Int) (|.y.20| Int) (|.y.21| Int) (|B_10| (Array Int Int)) (|C_9| Int) (|D_9| (Array Int Int)) (|E_9| Int) (|F_9| Int) (|.y.22| Int) (|.y.23| Int) (|.y.24| Int) (|G_9| (Array Int Int)) (|.y.25| (Array Int Int)) (|.y.26| (Array Int Int)) (|.y.27| (Array Int Int)) (|H_9| Int) (|.y.28| Int) (|.y.29| Int) (|.y.30| Int) (|.y.31| (Array Int Int)) (|.y.32| (Array Int Int)) (|.y.33| (Array Int Int)) (|.loc.34| Bool) (|.loc.35| Bool) (|.loc.36| Bool) (|L_10| Int) (|W_0| Int) (|J_10| Int) (|J_11| Int) (|L_11| Int) (|.x.87| (Array Int Int)) (|.loc.53| Bool) (|.loc.54| Bool) (|.x.88| Int) (|.x.89| (Array Int Int)) (|.x.90| Int) (|M_9| Int) (|.y.42| (Array Int Int)) (|.y.46| Int) (|.y.47| Int) (|.y.50| (Array Int Int)) (|.loc.55| Bool) (|.y.48| Int) (|.y.51| (Array Int Int)) (|.x.86| Int) (|.y.52| (Array Int Int)) (|.y.49| Int) (|.y.40| Int) (|.y.39| Int) (|.y.37| Int) (|.y.41| Int) (|.y.38| Int) (|.y.45| (Array Int Int)) (|.y.44| (Array Int Int)) (|.y.43| (Array Int Int)) (|.xtv.1| Int) (|.xtv.2| Int) (|.xtv.3| Int) (|.xpv.1| Int) (|.xpv.2| Int)) (=> (and (and (not .loc.34) (not .loc.35)) (not .loc.36)) (state |A_10| |.y.20| |.y.21| |B_10| |C_9| |D_9| |E_9| |F_9| |.y.22| |.y.23| |.y.24| |G_9| |.y.25| |.y.26| |.y.27| |H_9| |.y.28| |.y.29| |.y.30| |.y.31| |.y.32| |.y.33| |.loc.34| |.loc.35| |.loc.36| |L_10| |W_0| |J_10| |J_11| |L_11|))))
(assert (forall ((|A_10| Int) (|.y.20| Int) (|.y.21| Int) (|B_10| (Array Int Int)) (|C_9| Int) (|D_9| (Array Int Int)) (|E_9| Int) (|F_9| Int) (|.y.22| Int) (|.y.23| Int) (|.y.24| Int) (|G_9| (Array Int Int)) (|.y.25| (Array Int Int)) (|.y.26| (Array Int Int)) (|.y.27| (Array Int Int)) (|H_9| Int) (|.y.28| Int) (|.y.29| Int) (|.y.30| Int) (|.y.31| (Array Int Int)) (|.y.32| (Array Int Int)) (|.y.33| (Array Int Int)) (|.loc.34| Bool) (|.loc.35| Bool) (|.loc.36| Bool) (|L_10| Int) (|W_0| Int) (|J_10| Int) (|J_11| Int) (|L_11| Int) (|.x.87| (Array Int Int)) (|.loc.53| Bool) (|.loc.54| Bool) (|.x.88| Int) (|.x.89| (Array Int Int)) (|.x.90| Int) (|M_9| Int) (|.y.42| (Array Int Int)) (|.y.46| Int) (|.y.47| Int) (|.y.50| (Array Int Int)) (|.loc.55| Bool) (|.y.48| Int) (|.y.51| (Array Int Int)) (|.x.86| Int) (|.y.52| (Array Int Int)) (|.y.49| Int) (|.y.40| Int) (|.y.39| Int) (|.y.37| Int) (|.y.41| Int) (|.y.38| Int) (|.y.45| (Array Int Int)) (|.y.44| (Array Int Int)) (|.y.43| (Array Int Int)) (|.xtv.1| Int) (|.xtv.2| Int) (|.xtv.3| Int) (|.xpv.1| Int) (|.xpv.2| Int)) (=> (and (state |A_10| |.y.20| |.y.21| |B_10| |C_9| |D_9| |E_9| |F_9| |.y.22| |.y.23| |.y.24| |G_9| |.y.25| |.y.26| |.y.27| |H_9| |.y.28| |.y.29| |.y.30| |.y.31| |.y.32| |.y.33| |.loc.34| |.loc.35| |.loc.36| |L_10| |W_0| |J_10| |J_11| |L_11|) (let ((.def_40 (not .loc.34))) (let ((.def_41 (not .loc.35))) (let ((.def_43 (not .loc.36))) (let ((.def_48 (not .loc.53))) (let ((.def_51 (<= H_9 E_9))) (let ((.def_53 (= F_9 .x.88))) (let ((.def_56 (= G_9 .x.89))) (let ((.def_59 (= H_9 .x.90))) (let ((.def_63 (= M_9 0))) (let ((.def_67 (<= A_10 0))) (let ((.def_69 (not (<= J_10 0)))) (let ((.def_72 (not (<= L_10 0)))) (let ((.def_73 (<= C_9 0))) (let ((.def_95 (= (+ E_9 (* (- 1) M_9)) (- 1)))) (let ((.def_99 (not .def_73))) (let ((.def_105 (= C_9 .x.88))) (let ((.def_107 (= D_9 .x.89))) (let ((.def_109 (= F_9 .x.90))) (let ((.def_117 (and .def_63 (and .def_59 (and .def_53 .def_56))))) (let ((.def_121 (not .loc.54))) (let ((.def_124 (<= .y.28 E_9))) (let ((.def_127 (= .y.28 .y.46))) (let ((.def_142 (= .y.42 (store G_9 L_10 (select D_9 J_10))))) (let ((.def_144 (<= F_9 0))) (let ((.def_145 (not .def_144))) (let ((.def_149 (= (+ E_9 (+ F_9 (* (- 1) L_10))) 0))) (let ((.def_152 (= (+ C_9 (+ E_9 (* (- 1) J_10))) 0))) (let ((.def_154 (or .def_72 .def_144))) (let ((.def_156 (or .def_69 .def_73))) (let ((.def_158 (= H_9 .y.46))) (let ((.def_170 (<= .y.29 E_9))) (let ((.def_173 (= .y.29 .y.47))) (let ((.def_176 (= .y.31 .y.50))) (let ((.def_198 (= .y.28 .y.47))) (let ((.def_214 (not .loc.55))) (let ((.def_217 (<= .y.30 E_9))) (let ((.def_221 (= .y.32 .y.51))) (let ((.def_246 (= .y.29 .y.48))) (let ((.def_250 (= A_10 .x.86))) (let ((.def_273 (<= .y.24 .y.21))) (let ((.def_362 (<= .y.20 0))) (or (or (and (= B_10 .x.87) (or (or (and (or (or (and (or (or (and .loc.36 (or (or (and (and .def_48 .loc.54) (or (and .def_41 (and .loc.34 (and (and (and (and .def_51 .def_53) .def_56) .def_59) .def_63))) (and (and (and (and (or .def_67 .def_69) (and (or .def_72 .def_73) (and (= (+ A_10 (+ E_9 (* (- 1) J_10))) 0) (and (= (+ C_9 (+ E_9 (* (- 1) L_10))) 0) (and (and (not .def_67) (and (not (<= F_9 E_9)) (and (and (and .loc.35 .def_40) (= (select B_10 J_10) (select D_9 L_10))) .def_95))) .def_99))))) .def_105) .def_107) .def_109))) (and (and (and (= .y.31 .y.42) (and (and .def_40 (and .loc.53 (and .def_41 .def_117))) .def_121)) .def_124) .def_127)) (and (and (and (and (and (and (and (and .def_121 (and .def_109 (and .def_107 (and .def_105 (and .def_99 (and .def_95 (and .loc.53 (and .def_41 (and .loc.34 (not .def_51)))))))))) .def_142) .def_145) .def_149) .def_152) .def_154) .def_156) .def_158))) (and (and (and (and (= .y.32 .y.42) (and .def_43 (and .def_127 (and .def_121 (and .def_48 (and .loc.35 (and .loc.34 .def_117))))))) .def_170) .def_173) .def_176)) (and (and (not .def_124) (and .def_176 (and .def_158 (and .def_156 (and .def_154 (and .def_152 (and .def_149 (and .def_145 (and .def_142 (and .def_121 (and .def_109 (and .def_107 (and .def_105 (and .def_99 (and .def_95 (and .def_40 (and .def_48 (and .loc.36 .def_41)))))))))))))))))) .def_198)) .loc.55) (and (and (= .y.30 .y.48) (and (and (= .y.33 .y.42) (and (and .def_176 (and .def_173 (and .def_43 (and .def_127 (and .def_40 (and .loc.54 (and .loc.53 (and .loc.35 .def_117)))))))) .def_214)) .def_217)) .def_221)) (and (and (not .def_170) (and .def_221 (and .def_214 (and .def_198 (and .def_176 (and .def_43 (and .def_158 (and .def_156 (and .def_154 (and .def_152 (and .def_149 (and .def_145 (and .def_142 (and .def_109 (and .def_107 (and .def_105 (and .def_99 (and .def_95 (and .loc.54 (and .loc.53 (and .loc.34 .loc.35))))))))))))))))))))) .def_246)) .def_250) (and (= .y.26 .y.52) (and (= .y.25 .y.51) (and (= G_9 .y.50) (and (= .y.24 .y.49) (and (= .y.23 .y.48) (and (= .y.22 .y.47) (and (= F_9 .y.46) (and (= E_9 .x.90) (and (= .y.20 .x.86) (and (and (= .y.27 .y.42) (and .def_214 (and .def_43 (and .def_107 (and .def_105 (and .def_48 (and .loc.54 (and .def_41 (and .loc.34 .def_63))))))))) .def_273))))))))))) (and (= .y.33 .y.52) (and (= .y.30 .y.49) (and (not .def_217) (and .def_246 (and .def_221 (and .def_214 (and .def_198 (and .def_176 (and .def_43 (and .def_158 (and .def_156 (and .def_154 (and .def_152 (and .def_149 (and .def_145 (and .def_142 (and .def_109 (and .def_107 (and .def_105 (and .def_99 (and .def_95 (and .def_40 (and .def_48 (and .loc.54 (and .loc.35 .def_250))))))))))))))))))))))))))) (and (not (<= .y.40 0)) (and (not (<= .y.39 0)) (and (not (<= .x.90 0)) (and (not (<= M_9 0)) (and (not (<= .x.88 0)) (and (not (<= .y.37 0)) (and (not (<= .y.41 0)) (and (= .y.38 0) (and .def_214 (and .def_43 (and .def_121 (and .def_40 (and .loc.53 (and .def_41 .def_250))))))))))))))) (and (= .y.27 .y.45) (and (= .y.26 .y.44) (and (= .y.25 .y.43) (and (= G_9 .y.42) (and (= .y.24 .y.41) (and (= .y.23 .y.40) (and (= .y.22 .y.39) (and (= E_9 M_9) (and (= .y.20 .y.37) (and (or .def_69 .def_362) (and (or .def_73 (not (<= W_0 0))) (and (not .def_273) (and (= (+ .y.21 (+ C_9 (* (- 1) W_0))) 0) (and (= (+ .y.20 (+ .y.21 (* (- 1) J_10))) 0) (and (not .def_362) (and (= (+ .y.21 (* (- 1) .y.38)) (- 1)) (and (= .x.87 (store B_10 J_10 L_10)) (and (= .x.89 (store D_9 W_0 L_10)) (and .def_214 (and .def_43 (and .def_121 (and .def_109 (and .def_105 (and .def_99 (and .loc.53 (and .def_41 (and .loc.34 .def_250)))))))))))))))))))))))))))))))))))))))))))))))))))))))))))))))))))))) (state |.x.86| |.y.37| |.y.38| |.x.87| |.x.88| |.x.89| |M_9| |.x.90| |.y.39| |.y.40| |.y.41| |.y.42| |.y.43| |.y.44| |.y.45| |.y.46| |.y.47| |.y.48| |.y.49| |.y.50| |.y.51| |.y.52| |.loc.53| |.loc.54| |.loc.55| |.xtv.1| |.xtv.2| |.xtv.3| |.xpv.1| |.xpv.2|))))
(assert (forall ((|A_10| Int) (|.y.20| Int) (|.y.21| Int) (|B_10| (Array Int Int)) (|C_9| Int) (|D_9| (Array Int Int)) (|E_9| Int) (|F_9| Int) (|.y.22| Int) (|.y.23| Int) (|.y.24| Int) (|G_9| (Array Int Int)) (|.y.25| (Array Int Int)) (|.y.26| (Array Int Int)) (|.y.27| (Array Int Int)) (|H_9| Int) (|.y.28| Int) (|.y.29| Int) (|.y.30| Int) (|.y.31| (Array Int Int)) (|.y.32| (Array Int Int)) (|.y.33| (Array Int Int)) (|.loc.34| Bool) (|.loc.35| Bool) (|.loc.36| Bool) (|L_10| Int) (|W_0| Int) (|J_10| Int) (|J_11| Int) (|L_11| Int) (|.x.87| (Array Int Int)) (|.loc.53| Bool) (|.loc.54| Bool) (|.x.88| Int) (|.x.89| (Array Int Int)) (|.x.90| Int) (|M_9| Int) (|.y.42| (Array Int Int)) (|.y.46| Int) (|.y.47| Int) (|.y.50| (Array Int Int)) (|.loc.55| Bool) (|.y.48| Int) (|.y.51| (Array Int Int)) (|.x.86| Int) (|.y.52| (Array Int Int)) (|.y.49| Int) (|.y.40| Int) (|.y.39| Int) (|.y.37| Int) (|.y.41| Int) (|.y.38| Int) (|.y.45| (Array Int Int)) (|.y.44| (Array Int Int)) (|.y.43| (Array Int Int)) (|.xtv.1| Int) (|.xtv.2| Int) (|.xtv.3| Int) (|.xpv.1| Int) (|.xpv.2| Int)) (=> (state |A_10| |.y.20| |.y.21| |B_10| |C_9| |D_9| |E_9| |F_9| |.y.22| |.y.23| |.y.24| |G_9| |.y.25| |.y.26| |.y.27| |H_9| |.y.28| |.y.29| |.y.30| |.y.31| |.y.32| |.y.33| |.loc.34| |.loc.35| |.loc.36| |L_10| |W_0| |J_10| |J_11| |L_11|) (let ((.def_67 (<= A_10 0))) (let ((.def_73 (<= C_9 0))) (not (and (and .loc.36 (and .loc.35 (not .loc.34))) (and (and (and (not (= (select D_9 L_11) (select B_10 J_11))) (and (and (and (not .def_73) (and (not .def_67) (not (<= F_9 E_9)))) (= (+ A_10 (+ E_9 (* (- 1) J_11))) 0)) (= (+ C_9 (+ E_9 (* (- 1) L_11))) 0))) (or .def_73 (not (<= L_11 0)))) (or .def_67 (not (<= J_11 0)))))))))))
(check-sat)
